(set-logic QF_LRA)
(declare-fun x0 () Real)
(declare-fun x1 () Real)
(declare-fun x2 () Real)
(declare-fun x3 () Real)
(declare-fun x4 () Real)
(declare-fun x5 () Real)
(declare-fun x6 () Real)
(declare-fun x7 () Real)
(declare-fun x8 () Real)
(declare-fun x9 () Real)
(declare-fun A0 () Bool)
(declare-fun A2 () Bool)
(declare-fun A3 () Bool)
(declare-fun A4 () Bool)
(declare-fun A6 () Bool)
(declare-fun A7 () Bool)
(declare-fun A9 () Bool)
(assert (let ((.def_0 (not A2))) (let ((.def_1 (* (/ 260096224269539 4503599627370496) x3))) (let ((.def_2 (< .def_1 (- (/ 124730964401609 281474976710656))))) (let ((.def_3 (not .def_2))) (let ((.def_4 (= .def_3 .def_0))) (let ((.def_5 (not .def_4))) (let ((.def_6 (* (/ 1227883720147731 2251799813685248) x3))) (let ((.def_7 (* (/ 1026146892858307 2251799813685248) x1))) (let ((.def_8 (+ .def_7 .def_6))) (let ((.def_9 (< .def_8 (- (/ 3953780623795551 2251799813685248))))) (let ((.def_10 (not .def_9))) (let ((.def_11 (or .def_10 A0))) (let ((.def_12 (or .def_11 .def_5))) (let ((.def_13 (not .def_12))) (let ((.def_14 (not A9))) (let ((.def_15 (or .def_0 .def_14))) (let ((.def_16 (not A0))) (let ((.def_17 (not A4))) (let ((.def_18 (or .def_17 .def_16))) (let ((.def_19 (and .def_18 .def_15))) (let ((.def_20 (not .def_19))) (let ((.def_21 (or .def_20 .def_13))) (let ((.def_22 (not .def_21))) (let ((.def_23 (* (- (/ 2116468918409155 2251799813685248)) x8))) (let ((.def_24 (* (- (/ 1755568874665161 4503599627370496)) x5))) (let ((.def_25 (* (- (/ 1559489004780923 2251799813685248)) x7))) (let ((.def_26 (* (- (/ 1659542537726967 2251799813685248)) x0))) (let ((.def_27 (* (/ 141211005737549 562949953421312) x9))) (let ((.def_28 (* (/ 355594524362247 2251799813685248) x1))) (let ((.def_29 (* (- (/ 845194424278191 4503599627370496)) x4))) (let ((.def_30 (+ .def_29 .def_28 .def_27 .def_26 .def_25 .def_24 .def_23))) (let ((.def_31 (< .def_30 (/ 239386945249377 562949953421312)))) (let ((.def_32 (and .def_31 A0))) (let ((.def_33 (not A6))) (let ((.def_34 (= .def_0 .def_33))) (let ((.def_35 (or .def_34 .def_32))) (let ((.def_36 (not A7))) (let ((.def_37 (and A4 .def_36))) (let ((.def_38 (and A3 A2))) (let ((.def_39 (or .def_38 .def_37))) (let ((.def_40 (not .def_39))) (let ((.def_41 (and .def_40 .def_35))) (let ((.def_42 (and .def_41 .def_22))) (let ((.def_43 (<= x9 1.0))) (let ((.def_44 (<= 0.0 x9))) (let ((.def_45 (<= x8 1.0))) (let ((.def_46 (<= 0.0 x8))) (let ((.def_47 (<= x7 1.0))) (let ((.def_48 (<= 0.0 x7))) (let ((.def_49 (<= x6 1.0))) (let ((.def_50 (<= 0.0 x6))) (let ((.def_51 (<= x5 1.0))) (let ((.def_52 (<= 0.0 x5))) (let ((.def_53 (<= x4 1.0))) (let ((.def_54 (<= 0.0 x4))) (let ((.def_55 (<= x3 1.0))) (let ((.def_56 (<= 0.0 x3))) (let ((.def_57 (<= x2 1.0))) (let ((.def_58 (<= 0.0 x2))) (let ((.def_59 (<= x1 1.0))) (let ((.def_60 (<= 0.0 x1))) (let ((.def_61 (<= x0 1.0))) (let ((.def_62 (<= 0.0 x0))) (let ((.def_63 (and .def_62 .def_61 .def_60 .def_59 .def_58 .def_57 .def_56 .def_55 .def_54 .def_53 .def_52 .def_51 .def_50 .def_49 .def_48 .def_47 .def_46 .def_45 .def_44 .def_43 .def_42))) .def_63)))))))))))))))))))))))))))))))))))))))))))))))))))))))))))))))))
(check-sat)
